c File: instances/36_0.15_1.col
c
c Description: Random graph of size 36 vertices and P(0.15000000000000002) of edges between any two vertices.
p col 36 630
e 1 5
e 1 12
e 1 21
e 1 23
e 1 24
e 1 27
e 1 30
e 1 34
e 2 4
e 2 7
e 2 16
e 2 21
e 3 17
e 3 22
e 3 31
e 4 6
e 4 7
e 4 8
e 4 9
e 4 10
e 4 11
e 4 13
e 4 14
e 4 17
e 4 22
e 4 30
e 4 32
e 4 35
e 4 36
e 5 10
e 5 11
e 5 17
e 5 19
e 5 21
e 5 24
e 5 28
e 5 32
e 6 8
e 6 10
e 6 11
e 6 14
e 6 19
e 6 22
e 6 25
e 6 29
e 7 9
e 7 12
e 7 15
e 7 16
e 7 25
e 7 29
e 7 32
e 8 11
e 8 14
e 8 16
e 8 21
e 8 29
e 8 34
e 8 36
e 9 10
e 9 13
e 9 18
e 9 22
e 9 33
e 10 20
e 11 28
e 11 33
e 11 35
e 12 18
e 12 36
e 13 18
e 13 19
e 13 20
e 13 24
e 13 26
e 14 17
e 14 23
e 15 18
e 15 26
e 15 27
e 15 36
e 17 33
e 18 23
e 18 25
e 19 21
e 19 22
e 19 26
e 19 27
e 20 21
e 20 27
e 20 30
e 21 22
e 21 26
e 21 27
e 21 30
e 22 25
e 22 31
e 23 27
e 23 32
e 23 35
e 24 32
e 24 36
e 25 27
e 25 32
e 25 34
e 25 36